
Gurobi 9.1.1 (win64) logging started Sun Mar 13 20:57:21 2022

Changed value of parameter LogFile to ./Log/Direct_MIP_Return_solver_1500_order_100_batch.log
   Prev:   Default: 
Gurobi Optimizer version 9.1.1 build v9.1.1rc0 (win64)
Thread count: 6 physical cores, 12 logical processors, using up to 12 threads
Optimize a model with 431200 rows, 399600 columns and 1332900 nonzeros
Model fingerprint: 0x43ab5f91
Variable types: 4800 continuous, 394800 integer (394800 binary)
Coefficient statistics:
  Matrix range     [1e+00, 3e+01]
  Objective range  [4e-01, 1e+00]
  Bounds range     [1e+00, 4e+01]
  RHS range        [1e+00, 2e+01]
Found heuristic solution: objective 14880.800000
Presolve removed 200300 rows and 198800 columns
Presolve time: 3.96s
Presolved: 230900 rows, 200800 columns, 1159900 nonzeros
Variable types: 0 continuous, 200800 integer (196200 binary)

Deterministic concurrent LP optimizer: primal and dual simplex
Showing first log only...


Root simplex log...

Iteration    Objective       Primal Inf.    Dual Inf.      Time
       1    6.6866000e+04   0.000000e+00   2.424758e+04      5s
   31257    2.3343146e+04   0.000000e+00   3.374882e+06     10s
   44826    1.4422408e+04   0.000000e+00   1.673899e+07     15s
   53474    1.0350807e+04   0.000000e+00   9.704646e+05     20s
   62243    9.7519434e+03   0.000000e+00   9.142976e+05     25s
   68642    9.4007480e+03   0.000000e+00   1.813513e+06     30s
   74330    9.1077582e+03   0.000000e+00   8.868082e+05     35s
   79307    8.8857300e+03   0.000000e+00   1.525873e+06     40s
   83336    8.7392565e+03   0.000000e+00   1.028104e+07     45s
   88550    8.5214339e+03   0.000000e+00   1.797512e+06     50s
   94712    8.2867403e+03   0.000000e+00   3.939839e+05     55s
  100156    8.0929418e+03   0.000000e+00   1.032698e+06     60s
  105519    7.9269337e+03   0.000000e+00   4.224647e+06     65s
  111200    7.7715362e+03   0.000000e+00   4.552818e+05     70s
  116038    7.6344488e+03   0.000000e+00   3.678325e+06     75s
  120617    7.4750785e+03   0.000000e+00   8.214831e+05     80s
  125259    7.3549011e+03   0.000000e+00   1.521968e+06     85s
  128377    7.2742250e+03   0.000000e+00   9.312834e+05     90s
  132157    7.1958147e+03   0.000000e+00   2.105414e+06     95s
  136693    7.0815263e+03   0.000000e+00   9.242637e+05    100s
  140620    7.0069318e+03   0.000000e+00   8.143682e+06    105s
  144210    6.9386936e+03   0.000000e+00   3.453888e+05    110s
  147597    6.8615005e+03   0.000000e+00   1.288881e+06    115s
  150977    6.8059891e+03   0.000000e+00   2.041654e+06    120s
  154777    6.7280050e+03   0.000000e+00   5.216846e+05    125s
  157797    6.6785902e+03   0.000000e+00   8.083040e+05    130s
  160547    6.6320021e+03   0.000000e+00   4.779792e+05    135s
  162967    6.6034832e+03   0.000000e+00   3.926856e+06    140s
  166347    6.5654685e+03   0.000000e+00   8.108491e+05    145s
  169467    6.5338986e+03   0.000000e+00   7.592662e+05    150s
  172547    6.4958783e+03   0.000000e+00   4.800338e+05    155s
  175637    6.4594725e+03   0.000000e+00   3.937378e+05    160s
  178647    6.4276431e+03   0.000000e+00   1.459331e+06    165s
  181567    6.3893634e+03   0.000000e+00   4.235334e+05    170s
  183967    6.3606145e+03   0.000000e+00   1.185822e+07    175s
  185597    6.3376152e+03   0.000000e+00   2.865171e+06    180s
  187247    6.3142081e+03   0.000000e+00   1.625003e+08    185s
  188597    6.2963435e+03   0.000000e+00   8.303923e+06    190s
  189897    6.2735172e+03   0.000000e+00   7.746065e+06    195s
  191547    6.2488217e+03   0.000000e+00   9.100549e+06    200s
  192927    6.2299124e+03   0.000000e+00   3.290954e+07    205s
  194347    6.2062691e+03   0.000000e+00   1.587894e+07    211s
  195437    6.1892901e+03   0.000000e+00   9.986119e+05    215s
  196647    6.1705306e+03   0.000000e+00   4.358600e+06    220s
  197697    6.1555167e+03   0.000000e+00   3.298544e+08    225s
  198997    6.1322590e+03   0.000000e+00   3.200707e+08    230s
  200077    6.1155514e+03   0.000000e+00   4.557006e+06    235s
  201327    6.0932249e+03   0.000000e+00   6.569906e+06    241s
  202317    6.0783199e+03   0.000000e+00   1.628569e+08    245s
  203317    6.0669129e+03   0.000000e+00   1.691405e+07    250s
  204267    6.0526586e+03   0.000000e+00   2.460343e+07    255s
  205217    6.0402161e+03   0.000000e+00   1.366279e+07    261s
  206037    6.0296132e+03   0.000000e+00   4.996572e+06    265s
  207017    6.0155768e+03   0.000000e+00   1.418768e+07    270s
  208027    6.0003133e+03   0.000000e+00   1.604902e+07    275s
  208997    5.9862174e+03   0.000000e+00   6.053089e+06    281s
  209827    5.9752128e+03   0.000000e+00   3.209565e+06    285s
  210787    5.9617847e+03   0.000000e+00   4.350961e+06    291s
  211617    5.9503246e+03   0.000000e+00   2.844091e+07    295s


Root relaxation: time limit, 212381 iterations, 295.75 seconds

    Nodes    |    Current Node    |     Objective Bounds      |     Work
 Expl Unexpl |  Obj  Depth IntInf | Incumbent    BestBd   Gap | It/Node Time

     0     0          -    0      14880.8000 3219.60000  78.4%     -  300s

Explored 0 nodes (212381 simplex iterations) in 300.10 seconds
Thread count was 12 (of 12 available processors)

Solution count 1: 14880.8 

Time limit reached
Best objective 1.488080000000e+04, best bound 3.219600000000e+03, gap 78.3641%

Gurobi 9.1.1 (win64) logging started Sun Apr 17 21:28:42 2022

Changed value of parameter LogFile to ./Log/Direct_MIP_Return_solver_1500_order_100_batch.log
   Prev:   Default: 
Gurobi Optimizer version 9.1.1 build v9.1.1rc0 (win64)
Thread count: 6 physical cores, 12 logical processors, using up to 12 threads
Optimize a model with 701200 rows, 459600 columns and 2445300 nonzeros
Model fingerprint: 0x2ab6c886
Variable types: 4800 continuous, 454800 integer (454800 binary)
Coefficient statistics:
  Matrix range     [1e+00, 4e+01]
  Objective range  [4e-01, 1e+00]
  Bounds range     [1e+00, 4e+01]
  RHS range        [1e+00, 2e+01]
Found heuristic solution: objective 24278.800000
Presolve removed 204600 rows and 188100 columns (presolve time = 6s) ...
Presolve removed 204600 rows and 188100 columns
Presolve time: 8.03s
Presolved: 496600 rows, 271500 columns, 2198800 nonzeros
Variable types: 0 continuous, 271500 integer (266900 binary)

Deterministic concurrent LP optimizer: primal simplex, dual simplex, and barrier
Showing barrier log only...

Root barrier log...

Elapsed ordering time = 5s
Ordering time: 8.87s
Elapsed ordering time = 9s
Elapsed ordering time = 10s
Elapsed ordering time = 15s
Elapsed ordering time = 19s
Elapsed ordering time = 20s
Ordering time: 24.64s

Barrier statistics:
 AA' NZ     : 2.441e+07
 Factor NZ  : 4.402e+08 (roughly 4.0 GBytes of memory)
 Factor Ops : 8.248e+11 (roughly 10 seconds per iteration)
 Threads    : 4

                  Objective                Residual
Iter       Primal          Dual         Primal    Dual     Compl     Time
   0   4.19052299e+04 -3.73717965e+04  7.23e+02 2.10e-13  1.21e+00    51s
   1   2.26467925e+04 -1.04785526e+04  5.89e-12 8.24e-02  8.08e-02    62s
   2   9.12464341e+03  3.81668983e+03  5.44e-13 1.82e-14  7.78e-03    73s
   3   5.10683973e+03  4.15172067e+03  3.34e-13 1.51e-14  1.37e-03    85s
   4   4.51462804e+03  4.22889784e+03  5.62e-10 1.64e-14  4.10e-04    97s
   5   4.41347278e+03  4.35904914e+03  6.44e-11 2.41e-14  7.81e-05   109s
   6   4.40299787e+03  4.40154399e+03  8.79e-10 2.03e-14  2.09e-06   120s
   7   4.40240061e+03  4.40239894e+03  4.35e-09 2.04e-14  2.41e-09   131s
   8   4.40240021e+03  4.40239999e+03  7.95e-07 3.87e-14  3.11e-10   143s
   9   4.40240000e+03  4.40240000e+03  1.85e-09 4.10e-14  3.43e-13   154s

Barrier solved model in 9 iterations and 154.25 seconds
Optimal objective 4.40240000e+03


Root crossover log...

  347000 variables added to crossover basis                      155s

    1899 DPushes remaining with DInf 0.0000000e+00               155s
       0 DPushes remaining with DInf 0.0000000e+00               156s

       1 Dual superbasic variables remain

  118899 PPushes remaining with PInf 0.0000000e+00               156s
  117259 PPushes remaining with PInf 0.0000000e+00               161s
  116289 PPushes remaining with PInf 0.0000000e+00               166s
  115583 PPushes remaining with PInf 0.0000000e+00               171s
  114934 PPushes remaining with PInf 0.0000000e+00               176s
  113738 PPushes remaining with PInf 0.0000000e+00               183s
  113237 PPushes remaining with PInf 0.0000000e+00               186s
  112205 PPushes remaining with PInf 0.0000000e+00               191s
  111271 PPushes remaining with PInf 0.0000000e+00               196s
  110290 PPushes remaining with PInf 0.0000000e+00               200s
  108868 PPushes remaining with PInf 0.0000000e+00               206s
  107520 PPushes remaining with PInf 0.0000000e+00               211s
  106329 PPushes remaining with PInf 0.0000000e+00               215s
  104831 PPushes remaining with PInf 0.0000000e+00               220s
  103101 PPushes remaining with PInf 0.0000000e+00               225s
  101433 PPushes remaining with PInf 0.0000000e+00               230s
   99425 PPushes remaining with PInf 0.0000000e+00               236s
   97654 PPushes remaining with PInf 0.0000000e+00               241s
   95773 PPushes remaining with PInf 0.0000000e+00               246s
   94151 PPushes remaining with PInf 0.0000000e+00               250s
   92193 PPushes remaining with PInf 0.0000000e+00               256s
   90207 PPushes remaining with PInf 0.0000000e+00               261s
   88230 PPushes remaining with PInf 0.0000000e+00               266s
   85842 PPushes remaining with PInf 0.0000000e+00               270s
   82506 PPushes remaining with PInf 0.0000000e+00               275s
   78917 PPushes remaining with PInf 0.0000000e+00               280s
   75005 PPushes remaining with PInf 0.0000000e+00               285s
   71732 PPushes remaining with PInf 0.0000000e+00               290s
   68792 PPushes remaining with PInf 0.0000000e+00               295s
   65184 PPushes remaining with PInf 0.0000000e+00               300s


Root relaxation: time limit, 55572 iterations, 291.39 seconds

    Nodes    |    Current Node    |     Objective Bounds      |     Work
 Expl Unexpl |  Obj  Depth IntInf | Incumbent    BestBd   Gap | It/Node Time

     0     0          -    0      24278.8000 3306.00000  86.4%     -  300s

Explored 0 nodes (55572 simplex iterations) in 300.19 seconds
Thread count was 12 (of 12 available processors)

Solution count 1: 24278.8 

Time limit reached
Best objective 2.427880000000e+04, best bound 3.306000000000e+03, gap 86.3832%
